%chk=h2.chk
# opt freq hf/6-31g** geom=connectivity

Title Card Required

0 1
 O                  0.00000000    0.00000000   -0.11081188
 H                  0.00000000   -0.78397589    0.44324751
 H                 -0.00000000    0.78397589    0.44324751

 1 2 1.0 3 1.0
 2
 3

