%chk=h20.chk
# opt freq hf/6-31g** geom=connectivity

h20

0 1
 O                 -0.69821559   -0.90088355   -0.00265322
 H                  0.26178441   -0.90088355   -0.00265322
 H                 -1.01867017    0.00405228   -0.00265322

 1 2 1.0 3 1.0
 2
 3

