%chk=h20h30+.chk
# opt freq hf/6-31g** geom=connectivity

Title Card Required

1 1
 O                  3.69965150    0.30056371    0.67358308
 H                  4.57245103    0.47647614    0.31459032
 H                  3.57412738    0.81225982    1.47608591
 O                  0.92053381   -1.30203853    0.35899276
 H                  1.79333334   -1.12612611    0.00000000
 H                  0.79500969   -0.79034243   -1.16149559
 H                  0.15765766   -1.93693691    0.00000000

 1 2 1.0 3 1.0 5 0.5
 2
 3
 4 5 1.0 6 1.0 7 1.0
 5
 6
 7

