%chk=h2_b3l.chk
# opt freq B3LYP/6-31g** geom=connectivity

Title Card Required

0 1
 O                  0.35908668    3.24315906    0.00000000
 H                  1.31908668    3.24315906    0.00000000
 H                  0.03863210    4.14809489    0.00000000

 1 2 1.0 3 1.0
 2
 3

